Depot Location/problem3.lp
\ Model problem3
\ LP format - for model browsing. Use MPS format to capture full model detail.
Minimize
  TC
Subject To
 R0: y_1,1 + y_2,1 + y_3,1 + y_4,1 + y_5,1 + y_6,1 + y_7,1 + y_8,1 + y_9,1
   + y_10,1 + y_11,1 + y_12,1 = 1
 R1: y_1,2 + y_2,2 + y_3,2 + y_4,2 + y_5,2 + y_6,2 + y_7,2 + y_8,2 + y_9,2
   + y_10,2 + y_11,2 + y_12,2 = 1
 R2: y_1,3 + y_2,3 + y_3,3 + y_4,3 + y_5,3 + y_6,3 + y_7,3 + y_8,3 + y_9,3
   + y_10,3 + y_11,3 + y_12,3 = 1
 R3: y_1,4 + y_2,4 + y_3,4 + y_4,4 + y_5,4 + y_6,4 + y_7,4 + y_8,4 + y_9,4
   + y_10,4 + y_11,4 + y_12,4 = 1
 R4: y_1,5 + y_2,5 + y_3,5 + y_4,5 + y_5,5 + y_6,5 + y_7,5 + y_8,5 + y_9,5
   + y_10,5 + y_11,5 + y_12,5 = 1
 R5: y_1,6 + y_2,6 + y_3,6 + y_4,6 + y_5,6 + y_6,6 + y_7,6 + y_8,6 + y_9,6
   + y_10,6 + y_11,6 + y_12,6 = 1
 R6: y_1,7 + y_2,7 + y_3,7 + y_4,7 + y_5,7 + y_6,7 + y_7,7 + y_8,7 + y_9,7
   + y_10,7 + y_11,7 + y_12,7 = 1
 R7: y_1,8 + y_2,8 + y_3,8 + y_4,8 + y_5,8 + y_6,8 + y_7,8 + y_8,8 + y_9,8
   + y_10,8 + y_11,8 + y_12,8 = 1
 R8: y_1,9 + y_2,9 + y_3,9 + y_4,9 + y_5,9 + y_6,9 + y_7,9 + y_8,9 + y_9,9
   + y_10,9 + y_11,9 + y_12,9 = 1
 R9: y_1,10 + y_2,10 + y_3,10 + y_4,10 + y_5,10 + y_6,10 + y_7,10 + y_8,10
   + y_9,10 + y_10,10 + y_11,10 + y_12,10 = 1
 R10: y_1,11 + y_2,11 + y_3,11 + y_4,11 + y_5,11 + y_6,11 + y_7,11 + y_8,11
   + y_9,11 + y_10,11 + y_11,11 + y_12,11 = 1
 R11: y_1,12 + y_2,12 + y_3,12 + y_4,12 + y_5,12 + y_6,12 + y_7,12 + y_8,12
   + y_9,12 + y_10,12 + y_11,12 + y_12,12 = 1
 R12: - 300 x_1 + 120 y_1,1 + 80 y_1,2 + 75 y_1,3 + 100 y_1,4 + 110 y_1,5
   + 100 y_1,6 + 90 y_1,7 + 60 y_1,8 + 30 y_1,9 + 150 y_1,10 + 95 y_1,11
   + 120 y_1,12 <= 0
 R13: - 250 x_2 + 120 y_2,1 + 80 y_2,2 + 75 y_2,3 + 100 y_2,4 + 110 y_2,5
   + 100 y_2,6 + 90 y_2,7 + 60 y_2,8 + 30 y_2,9 + 150 y_2,10 + 95 y_2,11
   + 120 y_2,12 <= 0
 R14: - 100 x_3 + 120 y_3,1 + 80 y_3,2 + 75 y_3,3 + 100 y_3,4 + 110 y_3,5
   + 100 y_3,6 + 90 y_3,7 + 60 y_3,8 + 30 y_3,9 + 150 y_3,10 + 95 y_3,11
   + 120 y_3,12 <= 0
 R15: - 180 x_4 + 120 y_4,1 + 80 y_4,2 + 75 y_4,3 + 100 y_4,4 + 110 y_4,5
   + 100 y_4,6 + 90 y_4,7 + 60 y_4,8 + 30 y_4,9 + 150 y_4,10 + 95 y_4,11
   + 120 y_4,12 <= 0
 R16: - 275 x_5 + 120 y_5,1 + 80 y_5,2 + 75 y_5,3 + 100 y_5,4 + 110 y_5,5
   + 100 y_5,6 + 90 y_5,7 + 60 y_5,8 + 30 y_5,9 + 150 y_5,10 + 95 y_5,11
   + 120 y_5,12 <= 0
 R17: - 300 x_6 + 120 y_6,1 + 80 y_6,2 + 75 y_6,3 + 100 y_6,4 + 110 y_6,5
   + 100 y_6,6 + 90 y_6,7 + 60 y_6,8 + 30 y_6,9 + 150 y_6,10 + 95 y_6,11
   + 120 y_6,12 <= 0
 R18: - 200 x_7 + 120 y_7,1 + 80 y_7,2 + 75 y_7,3 + 100 y_7,4 + 110 y_7,5
   + 100 y_7,6 + 90 y_7,7 + 60 y_7,8 + 30 y_7,9 + 150 y_7,10 + 95 y_7,11
   + 120 y_7,12 <= 0
 R19: - 220 x_8 + 120 y_8,1 + 80 y_8,2 + 75 y_8,3 + 100 y_8,4 + 110 y_8,5
   + 100 y_8,6 + 90 y_8,7 + 60 y_8,8 + 30 y_8,9 + 150 y_8,10 + 95 y_8,11
   + 120 y_8,12 <= 0
 R20: - 270 x_9 + 120 y_9,1 + 80 y_9,2 + 75 y_9,3 + 100 y_9,4 + 110 y_9,5
   + 100 y_9,6 + 90 y_9,7 + 60 y_9,8 + 30 y_9,9 + 150 y_9,10 + 95 y_9,11
   + 120 y_9,12 <= 0
 R21: - 250 x_10 + 120 y_10,1 + 80 y_10,2 + 75 y_10,3 + 100 y_10,4
   + 110 y_10,5 + 100 y_10,6 + 90 y_10,7 + 60 y_10,8 + 30 y_10,9
   + 150 y_10,10 + 95 y_10,11 + 120 y_10,12 <= 0
 R22: - 230 x_11 + 120 y_11,1 + 80 y_11,2 + 75 y_11,3 + 100 y_11,4
   + 110 y_11,5 + 100 y_11,6 + 90 y_11,7 + 60 y_11,8 + 30 y_11,9
   + 150 y_11,10 + 95 y_11,11 + 120 y_11,12 <= 0
 R23: - 180 x_12 + 120 y_12,1 + 80 y_12,2 + 75 y_12,3 + 100 y_12,4
   + 110 y_12,5 + 100 y_12,6 + 90 y_12,7 + 60 y_12,8 + 30 y_12,9
   + 150 y_12,10 + 95 y_12,11 + 120 y_12,12 <= 0
 R24: - TC + 3500 x_1 + 9000 x_2 + 10000 x_3 + 4000 x_4 + 3000 x_5
   + 9000 x_6 + 9000 x_7 + 3000 x_8 + 4000 x_9 + 10000 x_10 + 9000 x_11
   + 3500 x_12 + 100 y_1,1 + 80 y_1,2 + 50 y_1,3 + 50 y_1,4 + 60 y_1,5
   + 100 y_1,6 + 120 y_1,7 + 90 y_1,8 + 60 y_1,9 + 70 y_1,10 + 65 y_1,11
   + 110 y_1,12 + 120 y_2,1 + 90 y_2,2 + 60 y_2,3 + 70 y_2,4 + 65 y_2,5
   + 110 y_2,6 + 140 y_2,7 + 110 y_2,8 + 80 y_2,9 + 80 y_2,10 + 75 y_2,11
   + 130 y_2,12 + 140 y_3,1 + 110 y_3,2 + 80 y_3,3 + 80 y_3,4 + 75 y_3,5
   + 130 y_3,6 + 160 y_3,7 + 125 y_3,8 + 100 y_3,9 + 100 y_3,10 + 80 y_3,11
   + 150 y_3,12 + 160 y_4,1 + 125 y_4,2 + 100 y_4,3 + 100 y_4,4 + 80 y_4,5
   + 150 y_4,6 + 190 y_4,7 + 150 y_4,8 + 130 y_4,9 + 1000 y_4,10
   + 1000 y_4,11 + 1000 y_4,12 + 190 y_5,1 + 150 y_5,2 + 130 y_5,3
   + 1000 y_5,4 + 1000 y_5,5 + 1000 y_5,6 + 200 y_5,7 + 180 y_5,8
   + 150 y_5,9 + 1000 y_5,10 + 1000 y_5,11 + 1000 y_5,12 + 200 y_6,1
   + 180 y_6,2 + 150 y_6,3 + 1000 y_6,4 + 1000 y_6,5 + 1000 y_6,6
   + 100 y_6,7 + 80 y_6,8 + 50 y_6,9 + 50 y_6,10 + 60 y_6,11 + 100 y_6,12
   + 100 y_7,1 + 80 y_7,2 + 50 y_7,3 + 50 y_7,4 + 60 y_7,5 + 100 y_7,6
   + 120 y_7,7 + 90 y_7,8 + 60 y_7,9 + 70 y_7,10 + 65 y_7,11 + 100 y_7,12
   + 120 y_8,1 + 90 y_8,2 + 60 y_8,3 + 70 y_8,4 + 65 y_8,5 + 110 y_8,6
   + 140 y_8,7 + 110 y_8,8 + 80 y_8,9 + 80 y_8,10 + 72 y_8,11 + 130 y_8,12
   + 140 y_9,1 + 110 y_9,2 + 80 y_9,3 + 80 y_9,4 + 75 y_9,5 + 130 y_9,6
   + 160 y_9,7 + 125 y_9,8 + 100 y_9,9 + 100 y_9,10 + 80 y_9,11
   + 150 y_9,12 + 160 y_10,1 + 125 y_10,2 + 100 y_10,3 + 100 y_10,4
   + 80 y_10,5 + 150 y_10,6 + 190 y_10,7 + 150 y_10,8 + 130 y_10,9
   + 1000 y_10,10 + 1000 y_10,11 + 1000 y_10,12 + 190 y_11,1 + 150 y_11,2
   + 130 y_11,3 + 1000 y_11,4 + 1000 y_11,5 + 1000 y_11,6 + 200 y_11,7
   + 180 y_11,8 + 150 y_11,9 + 1000 y_11,10 + 1000 y_11,11 + 1000 y_11,12
   + 200 y_12,1 + 180 y_12,2 + 150 y_12,3 + 1000 y_12,4 + 1000 y_12,5
   + 1000 y_12,6 + 100 y_12,7 + 80 y_12,8 + 50 y_12,9 + 50 y_12,10
   + 60 y_12,11 + 100 y_12,12 = 0
Bounds
 y_1,1 <= 1
 y_1,2 <= 1
 y_1,3 <= 1
 y_1,4 <= 1
 y_1,5 <= 1
 y_1,6 <= 1
 y_1,7 <= 1
 y_1,8 <= 1
 y_1,9 <= 1
 y_1,10 <= 1
 y_1,11 <= 1
 y_1,12 <= 1
 y_2,1 <= 1
 y_2,2 <= 1
 y_2,3 <= 1
 y_2,4 <= 1
 y_2,5 <= 1
 y_2,6 <= 1
 y_2,7 <= 1
 y_2,8 <= 1
 y_2,9 <= 1
 y_2,10 <= 1
 y_2,11 <= 1
 y_2,12 <= 1
 y_3,1 <= 1
 y_3,2 <= 1
 y_3,3 <= 1
 y_3,4 <= 1
 y_3,5 <= 1
 y_3,6 <= 1
 y_3,7 <= 1
 y_3,8 <= 1
 y_3,9 <= 1
 y_3,10 <= 1
 y_3,11 <= 1
 y_3,12 <= 1
 y_4,1 <= 1
 y_4,2 <= 1
 y_4,3 <= 1
 y_4,4 <= 1
 y_4,5 <= 1
 y_4,6 <= 1
 y_4,7 <= 1
 y_4,8 <= 1
 y_4,9 <= 1
 y_4,10 <= 1
 y_4,11 <= 1
 y_4,12 <= 1
 y_5,1 <= 1
 y_5,2 <= 1
 y_5,3 <= 1
 y_5,4 <= 1
 y_5,5 <= 1
 y_5,6 <= 1
 y_5,7 <= 1
 y_5,8 <= 1
 y_5,9 <= 1
 y_5,10 <= 1
 y_5,11 <= 1
 y_5,12 <= 1
 y_6,1 <= 1
 y_6,2 <= 1
 y_6,3 <= 1
 y_6,4 <= 1
 y_6,5 <= 1
 y_6,6 <= 1
 y_6,7 <= 1
 y_6,8 <= 1
 y_6,9 <= 1
 y_6,10 <= 1
 y_6,11 <= 1
 y_6,12 <= 1
 y_7,1 <= 1
 y_7,2 <= 1
 y_7,3 <= 1
 y_7,4 <= 1
 y_7,5 <= 1
 y_7,6 <= 1
 y_7,7 <= 1
 y_7,8 <= 1
 y_7,9 <= 1
 y_7,10 <= 1
 y_7,11 <= 1
 y_7,12 <= 1
 y_8,1 <= 1
 y_8,2 <= 1
 y_8,3 <= 1
 y_8,4 <= 1
 y_8,5 <= 1
 y_8,6 <= 1
 y_8,7 <= 1
 y_8,8 <= 1
 y_8,9 <= 1
 y_8,10 <= 1
 y_8,11 <= 1
 y_8,12 <= 1
 y_9,1 <= 1
 y_9,2 <= 1
 y_9,3 <= 1
 y_9,4 <= 1
 y_9,5 <= 1
 y_9,6 <= 1
 y_9,7 <= 1
 y_9,8 <= 1
 y_9,9 <= 1
 y_9,10 <= 1
 y_9,11 <= 1
 y_9,12 <= 1
 y_10,1 <= 1
 y_10,2 <= 1
 y_10,3 <= 1
 y_10,4 <= 1
 y_10,5 <= 1
 y_10,6 <= 1
 y_10,7 <= 1
 y_10,8 <= 1
 y_10,9 <= 1
 y_10,10 <= 1
 y_10,11 <= 1
 y_10,12 <= 1
 y_11,1 <= 1
 y_11,2 <= 1
 y_11,3 <= 1
 y_11,4 <= 1
 y_11,5 <= 1
 y_11,6 <= 1
 y_11,7 <= 1
 y_11,8 <= 1
 y_11,9 <= 1
 y_11,10 <= 1
 y_11,11 <= 1
 y_11,12 <= 1
 y_12,1 <= 1
 y_12,2 <= 1
 y_12,3 <= 1
 y_12,4 <= 1
 y_12,5 <= 1
 y_12,6 <= 1
 y_12,7 <= 1
 y_12,8 <= 1
 y_12,9 <= 1
 y_12,10 <= 1
 y_12,11 <= 1
 y_12,12 <= 1
Binaries
 x_1 x_2 x_3 x_4 x_5 x_6 x_7 x_8 x_9 x_10 x_11 x_12
End
