Depot Location/problem3.sol
# Solution for model problem3
# Objective value = 1.8103041666666664e+04
TC 1.8103041666666664e+04
x_1 1
x_2 0
x_3 0
x_4 0
x_5 1
x_6 0
x_7 0
x_8 1
x_9 1
x_10 0
x_11 0
x_12 1
y_1,1 0
y_1,2 0.0625
y_1,3 1
y_1,4 1
y_1,5 0
y_1,6 0
y_1,7 0
y_1,8 0
y_1,9 0
y_1,10 0
y_1,11 0
y_1,12 1
y_2,1 0
y_2,2 0
y_2,3 0
y_2,4 0
y_2,5 0
y_2,6 0
y_2,7 0
y_2,8 0
y_2,9 0
y_2,10 0
y_2,11 0
y_2,12 0
y_3,1 0
y_3,2 0
y_3,3 0
y_3,4 0
y_3,5 0
y_3,6 0
y_3,7 0
y_3,8 0
y_3,9 0
y_3,10 0
y_3,11 0
y_3,12 0
y_4,1 0
y_4,2 0
y_4,3 0
y_4,4 0
y_4,5 0
y_4,6 0
y_4,7 0
y_4,8 0
y_4,9 0
y_4,10 0
y_4,11 0
y_4,12 0
y_5,1 1
y_5,2 0.5
y_5,3 0
y_5,4 0
y_5,5 0
y_5,6 0
y_5,7 0
y_5,8 0
y_5,9 0
y_5,10 0
y_5,11 0
y_5,12 0
y_6,1 0
y_6,2 0
y_6,3 0
y_6,4 0
y_6,5 0
y_6,6 0
y_6,7 0
y_6,8 0
y_6,9 0
y_6,10 0
y_6,11 0
y_6,12 0
y_7,1 0
y_7,2 0
y_7,3 0
y_7,4 0
y_7,5 0
y_7,6 0
y_7,7 0
y_7,8 0
y_7,9 0
y_7,10 0
y_7,11 0
y_7,12 0
y_8,1 0
y_8,2 0.4375
y_8,3 0
y_8,4 0
y_8,5 0
y_8,6 1
y_8,7 0
y_8,8 0
y_8,9 0
y_8,10 5.6666666666666665e-01
y_8,11 0
y_8,12 0
y_9,1 0
y_9,2 0
y_9,3 0
y_9,4 0
y_9,5 1
y_9,6 0
y_9,7 0
y_9,8 0
y_9,9 0
y_9,10 4.3333333333333335e-01
y_9,11 1
y_9,12 0
y_10,1 0
y_10,2 0
y_10,3 0
y_10,4 0
y_10,5 0
y_10,6 0
y_10,7 0
y_10,8 0
y_10,9 0
y_10,10 0
y_10,11 0
y_10,12 0
y_11,1 0
y_11,2 0
y_11,3 0
y_11,4 0
y_11,5 0
y_11,6 0
y_11,7 0
y_11,8 0
y_11,9 0
y_11,10 0
y_11,11 0
y_11,12 0
y_12,1 0
y_12,2 0
y_12,3 0
y_12,4 0
y_12,5 0
y_12,6 0
y_12,7 1
y_12,8 1
y_12,9 1
y_12,10 0
y_12,11 0
y_12,12 0
